# abs2nspace.dat AMPL format with namespaces

set I := TV Film ;
set J := Graham John Carol ;

param a :=
TV  Graham 3
TV John 4.4
TV Carol 4.9
Film Graham 1
Film John 2.4
Film Carol 1.1
;

namespace TerryG {
   param c := [*]
     Graham 2.2
     John 3.1416
     Carol 3
   ;
}

namespace JohnD {
   param c := [*]
     Graham 2.7
     John 3
     Carol 2.1
   ;
}

param b := TV 1 Film 1 ;

